p cnf 20 30
3 -4 16 0
8 11 -13 0
13 -19 -20 0
-5 17 18 0
5 7 16 0
9 14 -15 0
3 -19 -20 0
10 -12 -18 0
-6 12 -14 0
4 16 19 0
-4 -10 18 0
-13 16 18 0
-9 -11 13 0
-6 -7 8 0
5 7 -17 0
7 -12 20 0
-5 -13 20 0
6 -16 -17 0
5 -10 -19 0
1 -9 19 0
10 -11 -17 0
-10 -12 16 0
16 -18 -20 0
9 11 16 0
2 -4 20 0
4 12 -14 0
-5 9 -14 0
1 -4 18 0
-1 4 20 0
-3 15 -17 0
